p cnf 225 805
c t mc
-3 -1 0
-3 2 0
1 -2 3 0
4 -5 -6 0
-4 5 -6 0
4 5 6 0
-4 -5 6 0
-6 -7 -8 0
6 7 -8 0
-6 7 8 0
6 -7 8 0
3 -8 -9 0
-3 8 -9 0
3 8 9 0
-3 -8 9 0
-11 -10 0
-11 4 0
10 -4 11 0
13 11 0
13 12 0
-11 -12 -13 0
-14 10 0
-14 -13 0
-10 13 14 0
16 -14 0
16 15 0
14 -15 -16 0
17 16 0
17 10 0
-16 -10 -17 0
20 -10 0
20 19 0
10 -19 -20 0
-21 -5 0
-21 -20 0
5 20 21 0
22 18 0
22 21 0
-18 -21 -22 0
-23 10 -24 0
23 -10 -24 0
-23 -10 24 0
23 10 24 0
25 -23 0
25 24 0
23 -24 -25 0
26 22 0
26 25 0
-22 -25 -26 0
27 17 0
27 -26 0
-17 26 -27 0
28 -16 0
28 27 0
16 -27 -28 0
9 -28 -29 0
-9 28 -29 0
9 28 29 0
-9 -28 29 0
30 -7 0
30 13 0
7 -13 -30 0
-31 -29 0
-31 30 0
29 -30 31 0
-33 -32 0
-33 -6 0
32 6 33 0
34 -5 0
34 -13 0
5 13 -34 0
36 24 0
36 -35 0
-24 35 -36 0
35 7 -37 0
-35 -7 -37 0
35 -7 37 0
-35 7 37 0
-38 -36 0
-38 37 0
36 -37 38 0
35 4 -39 0
-35 -4 -39 0
35 -4 39 0
-35 4 39 0
40 -38 0
40 -39 0
38 39 -40 0
-34 -40 -41 0
34 40 -41 0
-34 40 41 0
34 -40 41 0
-42 33 0
-42 41 0
-33 -41 42 0
31 42 -43 0
-31 -42 -43 0
31 -42 43 0
-31 42 43 0
-44 -4 -45 0
44 4 -45 0
-44 4 45 0
44 -4 45 0
-46 -45 0
-46 19 0
45 -19 46 0
-46 24 -47 0
46 -24 -47 0
-46 -24 47 0
46 24 47 0
48 25 -49 0
-48 -25 -49 0
48 -25 49 0
-48 25 49 0
-50 21 0
-50 -24 0
-21 24 50 0
-51 15 0
-51 50 0
-15 -50 51 0
-44 51 -52 0
44 -51 -52 0
-44 -51 52 0
44 51 52 0
-49 -52 -53 0
49 52 -53 0
-49 52 53 0
49 -52 53 0
-54 -47 0
-54 -53 0
47 53 54 0
55 -43 0
55 54 0
43 -54 -55 0
56 6 0
56 1 0
-6 -1 -56 0
56 18 -57 0
-56 -18 -57 0
56 -18 57 0
-56 18 57 0
45 -57 -58 0
-45 57 -58 0
45 57 58 0
-45 -57 58 0
59 -23 0
59 48 0
23 -48 -59 0
-35 -59 -60 0
35 59 -60 0
-35 59 60 0
35 -59 60 0
61 58 0
61 60 0
-58 -60 -61 0
62 -61 0
62 -13 0
61 13 -62 0
-63 8 0
-63 62 0
-8 -62 63 0
-48 19 -64 0
48 -19 -64 0
-48 -19 64 0
48 19 64 0
20 65 -66 0
-20 -65 -66 0
20 -65 66 0
-20 65 66 0
64 -66 -67 0
-64 66 -67 0
64 66 67 0
-64 -66 67 0
25 44 -68 0
-25 -44 -68 0
25 -44 68 0
-25 44 68 0
69 -67 0
69 68 0
67 -68 -69 0
-22 69 -70 0
22 -69 -70 0
-22 -69 70 0
22 69 70 0
-6 -23 -71 0
6 23 -71 0
-6 23 71 0
6 -23 71 0
72 1 0
72 -71 0
-1 71 -72 0
-73 2 0
-73 -10 0
-2 10 73 0
73 -21 -74 0
-73 21 -74 0
73 21 74 0
-73 -21 74 0
75 -72 0
75 -74 0
72 74 -75 0
13 -11 -76 0
-13 11 -76 0
13 11 76 0
-13 -11 76 0
-77 75 0
-77 76 0
-75 -76 77 0
-49 -44 -78 0
49 44 -78 0
-49 44 78 0
49 -44 78 0
-79 52 0
-79 -78 0
-52 78 79 0
-59 2 -80 0
59 -2 -80 0
-59 -2 80 0
59 2 80 0
-81 12 0
-81 -80 0
-12 80 81 0
-82 10 0
-82 -23 0
-10 23 82 0
83 21 0
83 82 0
-21 -82 -83 0
84 -81 0
84 83 0
81 -83 -84 0
85 -84 0
85 66 0
84 -66 -85 0
-86 17 0
-86 -85 0
-17 85 86 0
-87 79 0
-87 86 0
-79 -86 87 0
-77 -87 -88 0
77 87 -88 0
-77 87 88 0
77 -87 88 0
33 -82 -89 0
-33 82 -89 0
33 82 89 0
-33 -82 89 0
-89 90 -91 0
89 -90 -91 0
-89 -90 91 0
89 90 91 0
92 49 0
92 -53 0
-49 53 -92 0
-91 -92 -93 0
91 92 -93 0
-91 92 93 0
91 -92 93 0
94 18 0
94 -11 0
-18 11 -94 0
-10 -94 -95 0
10 94 -95 0
-10 94 95 0
10 -94 95 0
-96 -93 0
-96 95 0
93 -95 96 0
-88 96 -97 0
88 -96 -97 0
-88 -96 97 0
88 96 97 0
98 -70 0
98 97 0
70 -97 -98 0
-63 98 -99 0
63 -98 -99 0
-63 -98 99 0
63 98 99 0
73 12 -100 0
-73 -12 -100 0
73 -12 100 0
-73 12 100 0
-100 80 -101 0
100 -80 -101 0
-100 -80 101 0
100 80 101 0
-102 10 0
-102 -2 0
-10 2 102 0
101 102 -103 0
-101 -102 -103 0
101 -102 103 0
-101 102 103 0
104 35 0
104 -80 0
-35 80 -104 0
104 1 -105 0
-104 -1 -105 0
104 -1 105 0
-104 1 105 0
106 103 0
106 -105 0
-103 105 -106 0
-107 -7 0
-107 57 0
7 -57 107 0
-108 -107 0
-108 -100 0
107 100 108 0
-64 12 -109 0
64 -12 -109 0
-64 -12 109 0
64 12 109 0
108 -109 -110 0
-108 109 -110 0
108 109 110 0
-108 -109 110 0
-111 -92 0
-111 110 0
92 -110 111 0
-111 -53 -112 0
111 53 -112 0
-111 53 112 0
111 -53 112 0
-113 106 0
-113 -112 0
-106 112 113 0
-59 114 0
59 114 0
115 35 0
115 -65 0
-35 65 -115 0
90 15 -116 0
-90 -15 -116 0
90 -15 116 0
-90 15 116 0
117 116 0
117 48 0
-116 -48 -117 0
-118 -117 0
-118 -10 0
117 10 118 0
115 118 -119 0
-115 -118 -119 0
115 -118 119 0
-115 118 119 0
120 -114 0
120 -119 0
114 119 -120 0
90 11 -121 0
-90 -11 -121 0
90 -11 121 0
-90 11 121 0
-122 121 0
-122 13 0
-121 -13 122 0
-123 32 0
-123 67 0
-32 -67 123 0
19 123 -124 0
-19 -123 -124 0
19 -123 124 0
-19 123 124 0
122 124 -125 0
-122 -124 -125 0
122 -124 125 0
-122 124 125 0
126 -120 0
126 -125 0
120 125 -126 0
127 -113 0
127 -126 0
113 126 -127 0
-59 -8 -128 0
59 8 -128 0
-59 8 128 0
59 -8 128 0
129 -67 0
129 -128 0
67 128 -129 0
130 24 0
130 18 0
-24 -18 -130 0
-131 130 0
-131 78 0
-130 -78 131 0
132 -123 0
132 131 0
123 -131 -132 0
23 -123 -133 0
-23 123 -133 0
23 123 133 0
-23 -123 133 0
134 -132 0
134 133 0
132 -133 -134 0
129 -134 -135 0
-129 134 -135 0
129 134 135 0
-129 -134 135 0
-136 127 0
-136 -135 0
-127 135 136 0
137 36 0
137 24 0
-36 -24 -137 0
138 37 0
138 -137 0
-37 137 -138 0
-139 -44 0
-139 -32 0
44 32 139 0
140 138 0
140 139 0
-138 -139 -140 0
141 109 0
141 -140 0
-109 140 -141 0
-142 136 0
-142 141 0
-136 -141 142 0
143 99 0
143 142 0
-99 -142 -143 0
-144 55 0
-144 143 0
-55 -143 144 0
145 56 0
145 -2 0
-56 2 -145 0
146 -145 0
146 -11 0
145 11 -146 0
-147 4 0
-147 -89 0
-4 89 147 0
148 -147 0
148 -33 0
147 33 -148 0
-148 -149 -150 0
148 149 -150 0
-148 149 150 0
148 -149 150 0
-151 25 0
-151 -7 0
-25 7 151 0
-152 150 0
-152 151 0
-150 -151 152 0
-56 14 -153 0
56 -14 -153 0
-56 -14 153 0
56 14 153 0
-52 18 -154 0
52 -18 -154 0
-52 -18 154 0
52 18 154 0
155 153 0
155 154 0
-153 -154 -155 0
-156 130 0
-156 -107 0
-130 107 156 0
157 82 0
157 -156 0
-82 156 -157 0
158 45 0
158 -157 0
-45 157 -158 0
-159 -155 0
-159 -158 0
155 158 159 0
160 152 0
160 -159 0
-152 159 -160 0
161 146 0
161 -160 0
-146 160 -161 0
-4 148 -162 0
4 -148 -162 0
-4 -148 162 0
4 148 162 0
-163 -19 0
-163 22 0
19 -22 163 0
163 109 -164 0
-163 -109 -164 0
163 -109 164 0
-163 109 164 0
-162 164 -165 0
162 -164 -165 0
-162 -164 165 0
162 164 165 0
161 165 -166 0
-161 -165 -166 0
161 -165 166 0
-161 165 166 0
168 -40 0
168 167 0
40 -167 -168 0
169 4 0
169 -168 0
-4 168 -169 0
-170 -149 0
-170 169 0
149 -169 170 0
-171 20 0
-171 -131 0
-20 131 171 0
-172 170 0
-172 -171 0
-170 171 172 0
173 -9 0
173 -102 0
9 102 -173 0
175 -173 0
175 174 0
173 -174 -175 0
-176 172 0
-176 175 0
-172 -175 176 0
177 147 0
177 -19 0
-147 19 -177 0
178 -177 0
178 100 0
177 -100 -178 0
-178 -35 -179 0
178 35 -179 0
-178 35 179 0
178 -35 179 0
176 -179 -180 0
-176 179 -180 0
176 179 180 0
-176 -179 180 0
-181 20 0
-181 -32 0
-20 32 181 0
-182 181 0
-182 -40 0
-181 40 182 0
24 -8 -183 0
-24 8 -183 0
24 8 183 0
-24 -8 183 0
184 182 0
184 183 0
-182 -183 -184 0
-185 100 0
-185 44 0
-100 -44 185 0
-186 184 0
-186 -185 0
-184 185 186 0
187 -180 0
187 -186 0
180 186 -187 0
16 -51 -188 0
-16 51 -188 0
16 51 188 0
-16 -51 188 0
189 -188 0
189 20 0
188 -20 -189 0
-190 -24 0
-190 -149 0
24 149 190 0
20 -190 -191 0
-20 190 -191 0
20 190 191 0
-20 -190 191 0
192 189 0
192 191 0
-189 -191 -192 0
-7 78 -193 0
7 -78 -193 0
-7 -78 193 0
7 78 193 0
-194 192 0
-194 193 0
-192 -193 194 0
-100 104 -195 0
100 -104 -195 0
-100 -104 195 0
100 104 195 0
195 10 -196 0
-195 -10 -196 0
195 -10 196 0
-195 10 196 0
197 133 0
197 196 0
-133 -196 -197 0
-198 -48 0
-198 -45 0
48 45 198 0
197 198 -199 0
-197 -198 -199 0
197 -198 199 0
-197 198 199 0
-200 4 0
-200 -45 0
-4 45 200 0
201 149 0
201 -1 0
-149 1 -201 0
202 201 0
202 37 0
-201 -37 -202 0
203 200 0
203 202 0
-200 -202 -203 0
204 -22 0
204 -48 0
22 48 -204 0
203 -204 -205 0
-203 204 -205 0
203 204 205 0
-203 -204 205 0
-206 -199 0
-206 205 0
199 -205 206 0
-207 -7 0
-207 -65 0
7 65 207 0
-208 -39 0
-208 -202 0
39 202 208 0
209 -207 0
209 208 0
207 -208 -209 0
-210 -45 0
-210 -56 0
45 56 210 0
211 209 0
211 -210 0
-209 210 -211 0
212 -206 0
212 211 0
206 -211 -212 0
213 194 0
213 -212 0
-194 212 -213 0
-214 187 0
-214 -213 0
-187 213 214 0
215 178 0
215 47 0
-178 -47 -215 0
216 49 0
216 132 0
-49 -132 -216 0
217 -38 0
217 -24 0
38 24 -217 0
218 22 0
218 49 0
-22 -49 -218 0
218 3 -219 0
-218 -3 -219 0
218 -3 219 0
-218 3 219 0
220 217 0
220 -219 0
-217 219 -220 0
221 -216 0
221 220 0
216 -220 -221 0
222 215 0
222 -221 0
-215 221 -222 0
223 214 0
223 -222 0
-214 222 -223 0
224 -166 0
224 223 0
166 -223 -224 0
-225 144 0
-225 224 0
-144 -224 225 0
-204 -108 -92 159 0
178 -90 -122 199 -144 -21 143 0
100 -223 72 -81 78 20 147 -94 0
51 -170 113 -125 -7 67 55 155 -95 217 0
-120 149 219 -98 43 176 -54 -162 -216 0
-188 -18 -167 132 -168 -146 -54 205 0
49 -158 12 165 -198 50 95 -121 7 0
182 -127 -215 -155 193 67 39 -119 0
221 210 -6 64 -22 -51 194 0
-70 -150 -90 -31 53 -133 88 -54 0
-34 -71 181 166 0
190 20 -145 53 -192 -3 163 -81 0
-159 -6 0
-19 46 0
184 225 -43 -37 -77 -38 0
93 76 55 97 -16 -4 -155 -142 -168 159 0
198 23 -169 -214 0
16 -88 1 85 -196 -130 192 28 0
56 -58 -110 196 21 -200 -22 136 213 -51 0
117 -87 197 -73 81 0
-185 -106 -40 -146 51 -216 31 0
-159 20 127 141 -195 -19 -126 -119 -86 0
130 168 -43 111 0
-107 -99 -158 63 -188 60 31 -32 -120 80 0
-116 92 -68 -26 -200 168 -24 29 -53 0
-48 -146 50 -81 182 -214 -75 0
42 -98 36 140 0
-73 -178 -85 75 0
6 134 -13 -57 138 82 49 -173 -139 0
127 115 178 184 -48 200 0
-116 -141 -179 -124 38 0
-57 -59 201 0
-101 -60 188 -175 0
-126 -222 -114 -112 53 211 -108 -30 0
-152 108 -12 211 -60 0
103 38 150 56 0
-46 94 53 172 -215 0
221 -3 -169 11 222 -59 -118 45 -201 -180 0
-5 -201 0
183 168 0
209 -180 222 225 0
-118 -32 -96 -192 -55 -161 -150 0
-137 -27 -145 -91 0
-135 -97 0
-135 -62 -25 185 120 0
93 94 135 0
3 -211 0
-154 -77 -86 174 16 204 27 144 169 0
-51 -176 128 142 0
-196 -98 64 12 -81 -223 -169 114 192 0
113 12 -176 29 -73 -144 -156 -69 185 0
173 -166 37 -99 41 -219 -77 152 -54 203 0
67 -195 4 172 147 191 0
51 108 20 215 80 -5 33 0
78 155 0
180 91 29 -197 177 35 90 0
-27 177 170 163 -140 0
-46 -12 -175 -194 -165 -150 0
125 -115 188 51 196 -36 160 35 0
32 -132 82 161 -146 -23 -221 0
-218 -14 -176 -95 0
53 -210 -122 177 -209 -124 0
-59 185 -26 64 220 225 0
-133 148 197 0
-52 189 150 -18 200 -187 -118 15 83 218 0
-203 22 195 65 53 125 176 8 202 -167 0
-46 -79 76 133 -190 70 0
1 -144 0
181 106 -103 -198 -60 -151 108 0
-95 -75 -22 -97 120 14 -46 118 0
-38 -100 22 -119 -20 -152 -155 40 0
-166 -130 0
205 -72 -11 -117 118 -145 44 96 -69 0
219 -128 163 165 138 0
111 -89 -21 -114 195 0
-181 18 0
96 203 -107 47 27 176 -53 207 -143 -105 0
-12 94 158 21 -32 -58 0
33 -142 95 -87 -63 -129 0
183 -197 -26 217 -96 0
203 -150 -19 110 8 1 0
138 195 0
56 39 -222 187 -72 -79 -106 0
202 133 -60 -132 194 -92 225 79 -187 0
-130 164 33 0
62 -87 -154 -49 -142 0
50 82 -148 198 -6 0
-142 4 9 -93 -31 199 0
-9 -87 -75 0
134 -184 142 172 -178 -103 -149 -200 -182 0
153 115 -60 0
-101 -98 0
-200 -8 -110 167 19 -177 -157 107 140 -144 0
83 28 -136 108 0
-18 -83 72 40 -200 205 -42 158 214 69 0
-35 221 -82 115 181 183 177 -76 0
82 -123 53 0
49 170 -197 -29 -107 173 210 0
153 -52 109 -48 195 54 -4 79 0
-115 47 -14 -77 -221 0
-13 197 66 0
-127 -199 -34 77 -181 -73 0
-223 199 -173 -171 179 180 -144 160 41 202 0
3 22 60 0
46 59 0
-16 90 96 5 -74 60 0
175 97 167 -33 -27 -60 115 78 24 -177 0
23 157 28 -145 -41 0
-66 -123 18 -77 173 40 -64 -26 0
169 -171 -53 -154 -101 127 29 0
160 -186 30 16 195 -10 225 -162 89 174 0
-98 -206 66 79 -129 -59 137 -83 -68 0
18 195 -119 -139 72 80 0
-59 -41 4 -50 79 0
43 190 -29 12 222 -71 -185 38 -204 -153 0
-199 208 -59 0
-88 14 -146 181 -65 83 -94 0
-184 103 -161 -108 -173 64 -58 -221 26 0
-129 119 -150 -209 -203 -171 -4 -110 -7 -113 0
-83 19 -212 0
-128 -45 -43 -19 0
123 31 28 87 -172 -134 165 -127 54 0
82 141 212 78 26 108 92 -179 -60 83 0
225 0
